50

99 18 308
99 31 368
96 9 331
96 48 352
92 10 297
92 6 334
91 39 320
88 12 313
87 13 345
86 37 395
85 30 295
76 7 270
74 19 222
72 17 222
69 18 373
67 27 390
67 28 329
62 21 190
61 30 388
56 12 327
52 13 378
51 1 240
49 23 262
46 2 296
44 9 181
42 7 167
40 13 230
40 13 156
33 2 227
33 13 380
30 9 253
30 15 341
29 8 164
28 2 155
28 3 296
27 7 217
25 11 374
24 5 186
23 2 271
22 10 197
21 2 198
20 8 354
17 5 390
14 3 337
13 6 325
11 5 313
10 2 148
7 1 69
7 4 194
3 1 202
